p cnf 456 1546
c p weight -181 1 0
c p weight 181 -1 0
c p weight 185 6.12323399573676603586882014729198302312846062338790031898128063403419218957424163818359375E-17 0
c p weight -185 1 0
c p weight 186 1 0
c p weight -186 1 0
c p weight -183 1 0
c p weight 183 -1 0
c p weight -187 1 0
c p weight 187 -1 0
c p weight -189 1 0
c p weight 189 -1 0
c p weight -192 1 0
c p weight 192 -1 0
c p weight -195 1 0
c p weight 195 -1 0
c p weight -198 1 0
c p weight 198 -1 0
c p weight -201 1 0
c p weight 201 -1 0
c p weight -204 1 0
c p weight 204 -1 0
c p weight -207 1 0
c p weight 207 -1 0
c p weight -210 1 0
c p weight 210 -1 0
c p weight -213 1 0
c p weight 213 -1 0
c p weight -216 1 0
c p weight 216 -1 0
c p weight -219 1 0
c p weight 219 -1 0
c p weight -222 1 0
c p weight 222 -1 0
c p weight -225 1 0
c p weight 225 -1 0
c p weight -228 1 0
c p weight 228 -1 0
c p weight -231 1 0
c p weight 231 -1 0
c p weight -234 1 0
c p weight 234 -1 0
c p weight -237 1 0
c p weight 237 -1 0
c p weight -240 1 0
c p weight 240 -1 0
c p weight -243 1 0
c p weight 243 -1 0
c p weight -246 1 0
c p weight 246 -1 0
c p weight -249 1 0
c p weight 249 -1 0
c p weight -252 1 0
c p weight 252 -1 0
c p weight -255 1 0
c p weight 255 -1 0
c p weight -258 1 0
c p weight 258 -1 0
c p weight -261 1 0
c p weight 261 -1 0
c p weight -264 1 0
c p weight 264 -1 0
c p weight -267 1 0
c p weight 267 -1 0
c p weight -270 1 0
c p weight 270 -1 0
c p weight -273 1 0
c p weight 273 -1 0
c p weight -276 1 0
c p weight 276 -1 0
c p weight -279 1 0
c p weight 279 -1 0
c p weight -282 1 0
c p weight 282 -1 0
c p weight -285 1 0
c p weight 285 -1 0
c p weight -288 1 0
c p weight 288 -1 0
c p weight -291 1 0
c p weight 291 -1 0
c p weight -294 1 0
c p weight 294 -1 0
c p weight -297 1 0
c p weight 297 -1 0
c p weight -300 1 0
c p weight 300 -1 0
c p weight -303 1 0
c p weight 303 -1 0
c p weight -306 1 0
c p weight 306 -1 0
c p weight -309 1 0
c p weight 309 -1 0
c p weight -312 1 0
c p weight 312 -1 0
c p weight -315 1 0
c p weight 315 -1 0
c p weight -318 1 0
c p weight 318 -1 0
c p weight -321 1 0
c p weight 321 -1 0
c p weight -324 1 0
c p weight 324 -1 0
c p weight -327 1 0
c p weight 327 -1 0
c p weight -330 1 0
c p weight 330 -1 0
c p weight -333 1 0
c p weight 333 -1 0
c p weight -336 1 0
c p weight 336 -1 0
c p weight -339 1 0
c p weight 339 -1 0
c p weight -342 1 0
c p weight 342 -1 0
c p weight -345 1 0
c p weight 345 -1 0
c p weight -348 1 0
c p weight 348 -1 0
c p weight -351 1 0
c p weight 351 -1 0
c p weight -354 1 0
c p weight 354 -1 0
c p weight -357 1 0
c p weight 357 -1 0
c p weight -360 1 0
c p weight 360 -1 0
c p weight -363 1 0
c p weight 363 -1 0
c p weight -366 1 0
c p weight 366 -1 0
c p weight -369 1 0
c p weight 369 -1 0
c p weight -372 1 0
c p weight 372 -1 0
c p weight -375 1 0
c p weight 375 -1 0
c p weight -378 1 0
c p weight 378 -1 0
c p weight -381 1 0
c p weight 381 -1 0
c p weight -384 1 0
c p weight 384 -1 0
c p weight -387 1 0
c p weight 387 -1 0
c p weight -390 1 0
c p weight 390 -1 0
c p weight -393 1 0
c p weight 393 -1 0
c p weight -396 1 0
c p weight 396 -1 0
c p weight -399 1 0
c p weight 399 -1 0
c p weight -402 1 0
c p weight 402 -1 0
c p weight -405 1 0
c p weight 405 -1 0
c p weight -408 1 0
c p weight 408 -1 0
c p weight -411 1 0
c p weight 411 -1 0
c p weight -414 1 0
c p weight 414 -1 0
c p weight -417 1 0
c p weight 417 -1 0
c p weight -420 1 0
c p weight 420 -1 0
c p weight -423 1 0
c p weight 423 -1 0
c p weight -426 1 0
c p weight 426 -1 0
c p weight -429 1 0
c p weight 429 -1 0
c p weight -432 1 0
c p weight 432 -1 0
c p weight -435 1 0
c p weight 435 -1 0
c p weight -438 1 0
c p weight 438 -1 0
c p weight -441 1 0
c p weight 441 -1 0
c p weight -444 1 0
c p weight 444 -1 0
c p weight -447 1 0
c p weight 447 -1 0
c p weight -450 1 0
c p weight 450 -1 0
c p weight -453 1 0
c p weight 453 -1 0
c p weight 456 0.5 0
c p weight -456 1 0
456 0
-179 0
-177 0
-175 0
-173 0
-171 0
-169 0
-167 0
-165 0
-163 0
-161 0
-159 0
-157 0
-155 0
-153 0
-151 0
-149 0
-147 0
-145 0
-143 0
-141 0
-139 0
-137 0
-135 0
-133 0
-131 0
-129 0
-127 0
-125 0
-123 0
-121 0
-119 0
-117 0
-115 0
-113 0
-111 0
-109 0
-107 0
-105 0
-103 0
-101 0
-99 0
-97 0
-95 0
-93 0
-91 0
-89 0
-87 0
-85 0
-83 0
-81 0
-79 0
-77 0
-75 0
-73 0
-71 0
-69 0
-67 0
-65 0
-63 0
-61 0
-59 0
-57 0
-55 0
-53 0
-51 0
-49 0
-47 0
-45 0
-43 0
-41 0
-39 0
-37 0
-35 0
-33 0
-31 0
-29 0
-27 0
-25 0
-23 0
-21 0
-19 0
-17 0
-15 0
-13 0
-11 0
-9 0
-7 0
-5 0
-3 0
-1 0
-181 179 0
-181 180 0
181 -179 -180 0
182 179 -180 0
182 -179 180 0
-182 179 180 0
-182 -179 -180 0
-183 184 0
-183 182 0
-183 -179 0
183 -184 179 -182 0
184 -179 182 0
-184 179 182 0
-185 182 0
184 -185 -179 0
-184 -185 179 0
184 185 179 -182 0
-184 185 -179 -182 0
-186 182 0
184 -186 179 0
-184 -186 -179 0
184 186 -179 -182 0
-184 186 179 -182 0
-187 184 0
-187 182 0
187 -184 -182 0
188 184 -182 0
188 -184 182 0
-188 184 182 0
-188 -184 -182 0
-189 184 0
-189 178 0
-189 177 -188 0
-189 -177 188 0
189 -184 177 188 -178 0
189 -184 -177 -188 -178 0
191 184 -177 0
191 -184 177 0
-191 184 177 0
-191 -184 -177 0
190 188 -178 0
190 -188 178 0
-190 188 178 0
-190 -188 -178 0
-192 191 0
-192 176 0
-192 175 -178 0
-192 -175 178 0
192 -191 175 178 -176 0
192 -191 -175 -178 -176 0
194 191 -175 0
194 -191 175 0
-194 191 175 0
-194 -191 -175 0
193 178 -176 0
193 -178 176 0
-193 178 176 0
-193 -178 -176 0
-195 194 0
-195 174 0
-195 173 -176 0
-195 -173 176 0
195 -194 173 176 -174 0
195 -194 -173 -176 -174 0
197 194 -173 0
197 -194 173 0
-197 194 173 0
-197 -194 -173 0
196 176 -174 0
196 -176 174 0
-196 176 174 0
-196 -176 -174 0
-198 197 0
-198 172 0
-198 171 -174 0
-198 -171 174 0
198 -197 171 174 -172 0
198 -197 -171 -174 -172 0
200 197 -171 0
200 -197 171 0
-200 197 171 0
-200 -197 -171 0
199 174 -172 0
199 -174 172 0
-199 174 172 0
-199 -174 -172 0
-201 200 0
-201 170 0
-201 169 -172 0
-201 -169 172 0
201 -200 169 172 -170 0
201 -200 -169 -172 -170 0
203 200 -169 0
203 -200 169 0
-203 200 169 0
-203 -200 -169 0
202 172 -170 0
202 -172 170 0
-202 172 170 0
-202 -172 -170 0
-204 203 0
-204 168 0
-204 167 -170 0
-204 -167 170 0
204 -203 167 170 -168 0
204 -203 -167 -170 -168 0
206 203 -167 0
206 -203 167 0
-206 203 167 0
-206 -203 -167 0
205 170 -168 0
205 -170 168 0
-205 170 168 0
-205 -170 -168 0
-207 206 0
-207 166 0
-207 165 -168 0
-207 -165 168 0
207 -206 165 168 -166 0
207 -206 -165 -168 -166 0
209 206 -165 0
209 -206 165 0
-209 206 165 0
-209 -206 -165 0
208 168 -166 0
208 -168 166 0
-208 168 166 0
-208 -168 -166 0
-210 209 0
-210 164 0
-210 163 -166 0
-210 -163 166 0
210 -209 163 166 -164 0
210 -209 -163 -166 -164 0
212 209 -163 0
212 -209 163 0
-212 209 163 0
-212 -209 -163 0
211 166 -164 0
211 -166 164 0
-211 166 164 0
-211 -166 -164 0
-213 212 0
-213 162 0
-213 161 -164 0
-213 -161 164 0
213 -212 161 164 -162 0
213 -212 -161 -164 -162 0
215 212 -161 0
215 -212 161 0
-215 212 161 0
-215 -212 -161 0
214 164 -162 0
214 -164 162 0
-214 164 162 0
-214 -164 -162 0
-216 215 0
-216 160 0
-216 159 -162 0
-216 -159 162 0
216 -215 159 162 -160 0
216 -215 -159 -162 -160 0
218 215 -159 0
218 -215 159 0
-218 215 159 0
-218 -215 -159 0
217 162 -160 0
217 -162 160 0
-217 162 160 0
-217 -162 -160 0
-219 218 0
-219 158 0
-219 157 -160 0
-219 -157 160 0
219 -218 157 160 -158 0
219 -218 -157 -160 -158 0
221 218 -157 0
221 -218 157 0
-221 218 157 0
-221 -218 -157 0
220 160 -158 0
220 -160 158 0
-220 160 158 0
-220 -160 -158 0
-222 221 0
-222 156 0
-222 155 -158 0
-222 -155 158 0
222 -221 155 158 -156 0
222 -221 -155 -158 -156 0
224 221 -155 0
224 -221 155 0
-224 221 155 0
-224 -221 -155 0
223 158 -156 0
223 -158 156 0
-223 158 156 0
-223 -158 -156 0
-225 224 0
-225 154 0
-225 153 -156 0
-225 -153 156 0
225 -224 153 156 -154 0
225 -224 -153 -156 -154 0
227 224 -153 0
227 -224 153 0
-227 224 153 0
-227 -224 -153 0
226 156 -154 0
226 -156 154 0
-226 156 154 0
-226 -156 -154 0
-228 227 0
-228 152 0
-228 151 -154 0
-228 -151 154 0
228 -227 151 154 -152 0
228 -227 -151 -154 -152 0
230 227 -151 0
230 -227 151 0
-230 227 151 0
-230 -227 -151 0
229 154 -152 0
229 -154 152 0
-229 154 152 0
-229 -154 -152 0
-231 230 0
-231 150 0
-231 149 -152 0
-231 -149 152 0
231 -230 149 152 -150 0
231 -230 -149 -152 -150 0
233 230 -149 0
233 -230 149 0
-233 230 149 0
-233 -230 -149 0
232 152 -150 0
232 -152 150 0
-232 152 150 0
-232 -152 -150 0
-234 233 0
-234 148 0
-234 147 -150 0
-234 -147 150 0
234 -233 147 150 -148 0
234 -233 -147 -150 -148 0
236 233 -147 0
236 -233 147 0
-236 233 147 0
-236 -233 -147 0
235 150 -148 0
235 -150 148 0
-235 150 148 0
-235 -150 -148 0
-237 236 0
-237 146 0
-237 145 -148 0
-237 -145 148 0
237 -236 145 148 -146 0
237 -236 -145 -148 -146 0
239 236 -145 0
239 -236 145 0
-239 236 145 0
-239 -236 -145 0
238 148 -146 0
238 -148 146 0
-238 148 146 0
-238 -148 -146 0
-240 239 0
-240 144 0
-240 143 -146 0
-240 -143 146 0
240 -239 143 146 -144 0
240 -239 -143 -146 -144 0
242 239 -143 0
242 -239 143 0
-242 239 143 0
-242 -239 -143 0
241 146 -144 0
241 -146 144 0
-241 146 144 0
-241 -146 -144 0
-243 242 0
-243 142 0
-243 141 -144 0
-243 -141 144 0
243 -242 141 144 -142 0
243 -242 -141 -144 -142 0
245 242 -141 0
245 -242 141 0
-245 242 141 0
-245 -242 -141 0
244 144 -142 0
244 -144 142 0
-244 144 142 0
-244 -144 -142 0
-246 245 0
-246 140 0
-246 139 -142 0
-246 -139 142 0
246 -245 139 142 -140 0
246 -245 -139 -142 -140 0
248 245 -139 0
248 -245 139 0
-248 245 139 0
-248 -245 -139 0
247 142 -140 0
247 -142 140 0
-247 142 140 0
-247 -142 -140 0
-249 248 0
-249 138 0
-249 137 -140 0
-249 -137 140 0
249 -248 137 140 -138 0
249 -248 -137 -140 -138 0
251 248 -137 0
251 -248 137 0
-251 248 137 0
-251 -248 -137 0
250 140 -138 0
250 -140 138 0
-250 140 138 0
-250 -140 -138 0
-252 251 0
-252 136 0
-252 135 -138 0
-252 -135 138 0
252 -251 135 138 -136 0
252 -251 -135 -138 -136 0
254 251 -135 0
254 -251 135 0
-254 251 135 0
-254 -251 -135 0
253 138 -136 0
253 -138 136 0
-253 138 136 0
-253 -138 -136 0
-255 254 0
-255 134 0
-255 133 -136 0
-255 -133 136 0
255 -254 133 136 -134 0
255 -254 -133 -136 -134 0
257 254 -133 0
257 -254 133 0
-257 254 133 0
-257 -254 -133 0
256 136 -134 0
256 -136 134 0
-256 136 134 0
-256 -136 -134 0
-258 257 0
-258 132 0
-258 131 -134 0
-258 -131 134 0
258 -257 131 134 -132 0
258 -257 -131 -134 -132 0
260 257 -131 0
260 -257 131 0
-260 257 131 0
-260 -257 -131 0
259 134 -132 0
259 -134 132 0
-259 134 132 0
-259 -134 -132 0
-261 260 0
-261 130 0
-261 129 -132 0
-261 -129 132 0
261 -260 129 132 -130 0
261 -260 -129 -132 -130 0
263 260 -129 0
263 -260 129 0
-263 260 129 0
-263 -260 -129 0
262 132 -130 0
262 -132 130 0
-262 132 130 0
-262 -132 -130 0
-264 263 0
-264 128 0
-264 127 -130 0
-264 -127 130 0
264 -263 127 130 -128 0
264 -263 -127 -130 -128 0
266 263 -127 0
266 -263 127 0
-266 263 127 0
-266 -263 -127 0
265 130 -128 0
265 -130 128 0
-265 130 128 0
-265 -130 -128 0
-267 266 0
-267 126 0
-267 125 -128 0
-267 -125 128 0
267 -266 125 128 -126 0
267 -266 -125 -128 -126 0
269 266 -125 0
269 -266 125 0
-269 266 125 0
-269 -266 -125 0
268 128 -126 0
268 -128 126 0
-268 128 126 0
-268 -128 -126 0
-270 269 0
-270 124 0
-270 123 -126 0
-270 -123 126 0
270 -269 123 126 -124 0
270 -269 -123 -126 -124 0
272 269 -123 0
272 -269 123 0
-272 269 123 0
-272 -269 -123 0
271 126 -124 0
271 -126 124 0
-271 126 124 0
-271 -126 -124 0
-273 272 0
-273 122 0
-273 121 -124 0
-273 -121 124 0
273 -272 121 124 -122 0
273 -272 -121 -124 -122 0
275 272 -121 0
275 -272 121 0
-275 272 121 0
-275 -272 -121 0
274 124 -122 0
274 -124 122 0
-274 124 122 0
-274 -124 -122 0
-276 275 0
-276 120 0
-276 119 -122 0
-276 -119 122 0
276 -275 119 122 -120 0
276 -275 -119 -122 -120 0
278 275 -119 0
278 -275 119 0
-278 275 119 0
-278 -275 -119 0
277 122 -120 0
277 -122 120 0
-277 122 120 0
-277 -122 -120 0
-279 278 0
-279 118 0
-279 117 -120 0
-279 -117 120 0
279 -278 117 120 -118 0
279 -278 -117 -120 -118 0
281 278 -117 0
281 -278 117 0
-281 278 117 0
-281 -278 -117 0
280 120 -118 0
280 -120 118 0
-280 120 118 0
-280 -120 -118 0
-282 281 0
-282 116 0
-282 115 -118 0
-282 -115 118 0
282 -281 115 118 -116 0
282 -281 -115 -118 -116 0
284 281 -115 0
284 -281 115 0
-284 281 115 0
-284 -281 -115 0
283 118 -116 0
283 -118 116 0
-283 118 116 0
-283 -118 -116 0
-285 284 0
-285 114 0
-285 113 -116 0
-285 -113 116 0
285 -284 113 116 -114 0
285 -284 -113 -116 -114 0
287 284 -113 0
287 -284 113 0
-287 284 113 0
-287 -284 -113 0
286 116 -114 0
286 -116 114 0
-286 116 114 0
-286 -116 -114 0
-288 287 0
-288 112 0
-288 111 -114 0
-288 -111 114 0
288 -287 111 114 -112 0
288 -287 -111 -114 -112 0
290 287 -111 0
290 -287 111 0
-290 287 111 0
-290 -287 -111 0
289 114 -112 0
289 -114 112 0
-289 114 112 0
-289 -114 -112 0
-291 290 0
-291 110 0
-291 109 -112 0
-291 -109 112 0
291 -290 109 112 -110 0
291 -290 -109 -112 -110 0
293 290 -109 0
293 -290 109 0
-293 290 109 0
-293 -290 -109 0
292 112 -110 0
292 -112 110 0
-292 112 110 0
-292 -112 -110 0
-294 293 0
-294 108 0
-294 107 -110 0
-294 -107 110 0
294 -293 107 110 -108 0
294 -293 -107 -110 -108 0
296 293 -107 0
296 -293 107 0
-296 293 107 0
-296 -293 -107 0
295 110 -108 0
295 -110 108 0
-295 110 108 0
-295 -110 -108 0
-297 296 0
-297 106 0
-297 105 -108 0
-297 -105 108 0
297 -296 105 108 -106 0
297 -296 -105 -108 -106 0
299 296 -105 0
299 -296 105 0
-299 296 105 0
-299 -296 -105 0
298 108 -106 0
298 -108 106 0
-298 108 106 0
-298 -108 -106 0
-300 299 0
-300 104 0
-300 103 -106 0
-300 -103 106 0
300 -299 103 106 -104 0
300 -299 -103 -106 -104 0
302 299 -103 0
302 -299 103 0
-302 299 103 0
-302 -299 -103 0
301 106 -104 0
301 -106 104 0
-301 106 104 0
-301 -106 -104 0
-303 302 0
-303 102 0
-303 101 -104 0
-303 -101 104 0
303 -302 101 104 -102 0
303 -302 -101 -104 -102 0
305 302 -101 0
305 -302 101 0
-305 302 101 0
-305 -302 -101 0
304 104 -102 0
304 -104 102 0
-304 104 102 0
-304 -104 -102 0
-306 305 0
-306 100 0
-306 99 -102 0
-306 -99 102 0
306 -305 99 102 -100 0
306 -305 -99 -102 -100 0
308 305 -99 0
308 -305 99 0
-308 305 99 0
-308 -305 -99 0
307 102 -100 0
307 -102 100 0
-307 102 100 0
-307 -102 -100 0
-309 308 0
-309 98 0
-309 97 -100 0
-309 -97 100 0
309 -308 97 100 -98 0
309 -308 -97 -100 -98 0
311 308 -97 0
311 -308 97 0
-311 308 97 0
-311 -308 -97 0
310 100 -98 0
310 -100 98 0
-310 100 98 0
-310 -100 -98 0
-312 311 0
-312 96 0
-312 95 -98 0
-312 -95 98 0
312 -311 95 98 -96 0
312 -311 -95 -98 -96 0
314 311 -95 0
314 -311 95 0
-314 311 95 0
-314 -311 -95 0
313 98 -96 0
313 -98 96 0
-313 98 96 0
-313 -98 -96 0
-315 314 0
-315 94 0
-315 93 -96 0
-315 -93 96 0
315 -314 93 96 -94 0
315 -314 -93 -96 -94 0
317 314 -93 0
317 -314 93 0
-317 314 93 0
-317 -314 -93 0
316 96 -94 0
316 -96 94 0
-316 96 94 0
-316 -96 -94 0
-318 317 0
-318 92 0
-318 91 -94 0
-318 -91 94 0
318 -317 91 94 -92 0
318 -317 -91 -94 -92 0
320 317 -91 0
320 -317 91 0
-320 317 91 0
-320 -317 -91 0
319 94 -92 0
319 -94 92 0
-319 94 92 0
-319 -94 -92 0
-321 320 0
-321 90 0
-321 89 -92 0
-321 -89 92 0
321 -320 89 92 -90 0
321 -320 -89 -92 -90 0
323 320 -89 0
323 -320 89 0
-323 320 89 0
-323 -320 -89 0
322 92 -90 0
322 -92 90 0
-322 92 90 0
-322 -92 -90 0
-324 323 0
-324 88 0
-324 87 -90 0
-324 -87 90 0
324 -323 87 90 -88 0
324 -323 -87 -90 -88 0
326 323 -87 0
326 -323 87 0
-326 323 87 0
-326 -323 -87 0
325 90 -88 0
325 -90 88 0
-325 90 88 0
-325 -90 -88 0
-327 326 0
-327 86 0
-327 85 -88 0
-327 -85 88 0
327 -326 85 88 -86 0
327 -326 -85 -88 -86 0
329 326 -85 0
329 -326 85 0
-329 326 85 0
-329 -326 -85 0
328 88 -86 0
328 -88 86 0
-328 88 86 0
-328 -88 -86 0
-330 329 0
-330 84 0
-330 83 -86 0
-330 -83 86 0
330 -329 83 86 -84 0
330 -329 -83 -86 -84 0
332 329 -83 0
332 -329 83 0
-332 329 83 0
-332 -329 -83 0
331 86 -84 0
331 -86 84 0
-331 86 84 0
-331 -86 -84 0
-333 332 0
-333 82 0
-333 81 -84 0
-333 -81 84 0
333 -332 81 84 -82 0
333 -332 -81 -84 -82 0
335 332 -81 0
335 -332 81 0
-335 332 81 0
-335 -332 -81 0
334 84 -82 0
334 -84 82 0
-334 84 82 0
-334 -84 -82 0
-336 335 0
-336 80 0
-336 79 -82 0
-336 -79 82 0
336 -335 79 82 -80 0
336 -335 -79 -82 -80 0
338 335 -79 0
338 -335 79 0
-338 335 79 0
-338 -335 -79 0
337 82 -80 0
337 -82 80 0
-337 82 80 0
-337 -82 -80 0
-339 338 0
-339 78 0
-339 77 -80 0
-339 -77 80 0
339 -338 77 80 -78 0
339 -338 -77 -80 -78 0
341 338 -77 0
341 -338 77 0
-341 338 77 0
-341 -338 -77 0
340 80 -78 0
340 -80 78 0
-340 80 78 0
-340 -80 -78 0
-342 341 0
-342 76 0
-342 75 -78 0
-342 -75 78 0
342 -341 75 78 -76 0
342 -341 -75 -78 -76 0
344 341 -75 0
344 -341 75 0
-344 341 75 0
-344 -341 -75 0
343 78 -76 0
343 -78 76 0
-343 78 76 0
-343 -78 -76 0
-345 344 0
-345 74 0
-345 73 -76 0
-345 -73 76 0
345 -344 73 76 -74 0
345 -344 -73 -76 -74 0
347 344 -73 0
347 -344 73 0
-347 344 73 0
-347 -344 -73 0
346 76 -74 0
346 -76 74 0
-346 76 74 0
-346 -76 -74 0
-348 347 0
-348 72 0
-348 71 -74 0
-348 -71 74 0
348 -347 71 74 -72 0
348 -347 -71 -74 -72 0
350 347 -71 0
350 -347 71 0
-350 347 71 0
-350 -347 -71 0
349 74 -72 0
349 -74 72 0
-349 74 72 0
-349 -74 -72 0
-351 350 0
-351 70 0
-351 69 -72 0
-351 -69 72 0
351 -350 69 72 -70 0
351 -350 -69 -72 -70 0
353 350 -69 0
353 -350 69 0
-353 350 69 0
-353 -350 -69 0
352 72 -70 0
352 -72 70 0
-352 72 70 0
-352 -72 -70 0
-354 353 0
-354 68 0
-354 67 -70 0
-354 -67 70 0
354 -353 67 70 -68 0
354 -353 -67 -70 -68 0
356 353 -67 0
356 -353 67 0
-356 353 67 0
-356 -353 -67 0
355 70 -68 0
355 -70 68 0
-355 70 68 0
-355 -70 -68 0
-357 356 0
-357 66 0
-357 65 -68 0
-357 -65 68 0
357 -356 65 68 -66 0
357 -356 -65 -68 -66 0
359 356 -65 0
359 -356 65 0
-359 356 65 0
-359 -356 -65 0
358 68 -66 0
358 -68 66 0
-358 68 66 0
-358 -68 -66 0
-360 359 0
-360 64 0
-360 63 -66 0
-360 -63 66 0
360 -359 63 66 -64 0
360 -359 -63 -66 -64 0
362 359 -63 0
362 -359 63 0
-362 359 63 0
-362 -359 -63 0
361 66 -64 0
361 -66 64 0
-361 66 64 0
-361 -66 -64 0
-363 362 0
-363 62 0
-363 61 -64 0
-363 -61 64 0
363 -362 61 64 -62 0
363 -362 -61 -64 -62 0
365 362 -61 0
365 -362 61 0
-365 362 61 0
-365 -362 -61 0
364 64 -62 0
364 -64 62 0
-364 64 62 0
-364 -64 -62 0
-366 365 0
-366 60 0
-366 59 -62 0
-366 -59 62 0
366 -365 59 62 -60 0
366 -365 -59 -62 -60 0
368 365 -59 0
368 -365 59 0
-368 365 59 0
-368 -365 -59 0
367 62 -60 0
367 -62 60 0
-367 62 60 0
-367 -62 -60 0
-369 368 0
-369 58 0
-369 57 -60 0
-369 -57 60 0
369 -368 57 60 -58 0
369 -368 -57 -60 -58 0
371 368 -57 0
371 -368 57 0
-371 368 57 0
-371 -368 -57 0
370 60 -58 0
370 -60 58 0
-370 60 58 0
-370 -60 -58 0
-372 371 0
-372 56 0
-372 55 -58 0
-372 -55 58 0
372 -371 55 58 -56 0
372 -371 -55 -58 -56 0
374 371 -55 0
374 -371 55 0
-374 371 55 0
-374 -371 -55 0
373 58 -56 0
373 -58 56 0
-373 58 56 0
-373 -58 -56 0
-375 374 0
-375 54 0
-375 53 -56 0
-375 -53 56 0
375 -374 53 56 -54 0
375 -374 -53 -56 -54 0
377 374 -53 0
377 -374 53 0
-377 374 53 0
-377 -374 -53 0
376 56 -54 0
376 -56 54 0
-376 56 54 0
-376 -56 -54 0
-378 377 0
-378 52 0
-378 51 -54 0
-378 -51 54 0
378 -377 51 54 -52 0
378 -377 -51 -54 -52 0
380 377 -51 0
380 -377 51 0
-380 377 51 0
-380 -377 -51 0
379 54 -52 0
379 -54 52 0
-379 54 52 0
-379 -54 -52 0
-381 380 0
-381 50 0
-381 49 -52 0
-381 -49 52 0
381 -380 49 52 -50 0
381 -380 -49 -52 -50 0
383 380 -49 0
383 -380 49 0
-383 380 49 0
-383 -380 -49 0
382 52 -50 0
382 -52 50 0
-382 52 50 0
-382 -52 -50 0
-384 383 0
-384 48 0
-384 47 -50 0
-384 -47 50 0
384 -383 47 50 -48 0
384 -383 -47 -50 -48 0
386 383 -47 0
386 -383 47 0
-386 383 47 0
-386 -383 -47 0
385 50 -48 0
385 -50 48 0
-385 50 48 0
-385 -50 -48 0
-387 386 0
-387 46 0
-387 45 -48 0
-387 -45 48 0
387 -386 45 48 -46 0
387 -386 -45 -48 -46 0
389 386 -45 0
389 -386 45 0
-389 386 45 0
-389 -386 -45 0
388 48 -46 0
388 -48 46 0
-388 48 46 0
-388 -48 -46 0
-390 389 0
-390 44 0
-390 43 -46 0
-390 -43 46 0
390 -389 43 46 -44 0
390 -389 -43 -46 -44 0
392 389 -43 0
392 -389 43 0
-392 389 43 0
-392 -389 -43 0
391 46 -44 0
391 -46 44 0
-391 46 44 0
-391 -46 -44 0
-393 392 0
-393 42 0
-393 41 -44 0
-393 -41 44 0
393 -392 41 44 -42 0
393 -392 -41 -44 -42 0
395 392 -41 0
395 -392 41 0
-395 392 41 0
-395 -392 -41 0
394 44 -42 0
394 -44 42 0
-394 44 42 0
-394 -44 -42 0
-396 395 0
-396 40 0
-396 39 -42 0
-396 -39 42 0
396 -395 39 42 -40 0
396 -395 -39 -42 -40 0
398 395 -39 0
398 -395 39 0
-398 395 39 0
-398 -395 -39 0
397 42 -40 0
397 -42 40 0
-397 42 40 0
-397 -42 -40 0
-399 398 0
-399 38 0
-399 37 -40 0
-399 -37 40 0
399 -398 37 40 -38 0
399 -398 -37 -40 -38 0
401 398 -37 0
401 -398 37 0
-401 398 37 0
-401 -398 -37 0
400 40 -38 0
400 -40 38 0
-400 40 38 0
-400 -40 -38 0
-402 401 0
-402 36 0
-402 35 -38 0
-402 -35 38 0
402 -401 35 38 -36 0
402 -401 -35 -38 -36 0
404 401 -35 0
404 -401 35 0
-404 401 35 0
-404 -401 -35 0
403 38 -36 0
403 -38 36 0
-403 38 36 0
-403 -38 -36 0
-405 404 0
-405 34 0
-405 33 -36 0
-405 -33 36 0
405 -404 33 36 -34 0
405 -404 -33 -36 -34 0
407 404 -33 0
407 -404 33 0
-407 404 33 0
-407 -404 -33 0
406 36 -34 0
406 -36 34 0
-406 36 34 0
-406 -36 -34 0
-408 407 0
-408 32 0
-408 31 -34 0
-408 -31 34 0
408 -407 31 34 -32 0
408 -407 -31 -34 -32 0
410 407 -31 0
410 -407 31 0
-410 407 31 0
-410 -407 -31 0
409 34 -32 0
409 -34 32 0
-409 34 32 0
-409 -34 -32 0
-411 410 0
-411 30 0
-411 29 -32 0
-411 -29 32 0
411 -410 29 32 -30 0
411 -410 -29 -32 -30 0
413 410 -29 0
413 -410 29 0
-413 410 29 0
-413 -410 -29 0
412 32 -30 0
412 -32 30 0
-412 32 30 0
-412 -32 -30 0
-414 413 0
-414 28 0
-414 27 -30 0
-414 -27 30 0
414 -413 27 30 -28 0
414 -413 -27 -30 -28 0
416 413 -27 0
416 -413 27 0
-416 413 27 0
-416 -413 -27 0
415 30 -28 0
415 -30 28 0
-415 30 28 0
-415 -30 -28 0
-417 416 0
-417 26 0
-417 25 -28 0
-417 -25 28 0
417 -416 25 28 -26 0
417 -416 -25 -28 -26 0
419 416 -25 0
419 -416 25 0
-419 416 25 0
-419 -416 -25 0
418 28 -26 0
418 -28 26 0
-418 28 26 0
-418 -28 -26 0
-420 419 0
-420 24 0
-420 23 -26 0
-420 -23 26 0
420 -419 23 26 -24 0
420 -419 -23 -26 -24 0
422 419 -23 0
422 -419 23 0
-422 419 23 0
-422 -419 -23 0
421 26 -24 0
421 -26 24 0
-421 26 24 0
-421 -26 -24 0
-423 422 0
-423 22 0
-423 21 -24 0
-423 -21 24 0
423 -422 21 24 -22 0
423 -422 -21 -24 -22 0
425 422 -21 0
425 -422 21 0
-425 422 21 0
-425 -422 -21 0
424 24 -22 0
424 -24 22 0
-424 24 22 0
-424 -24 -22 0
-426 425 0
-426 20 0
-426 19 -22 0
-426 -19 22 0
426 -425 19 22 -20 0
426 -425 -19 -22 -20 0
428 425 -19 0
428 -425 19 0
-428 425 19 0
-428 -425 -19 0
427 22 -20 0
427 -22 20 0
-427 22 20 0
-427 -22 -20 0
-429 428 0
-429 18 0
-429 17 -20 0
-429 -17 20 0
429 -428 17 20 -18 0
429 -428 -17 -20 -18 0
431 428 -17 0
431 -428 17 0
-431 428 17 0
-431 -428 -17 0
430 20 -18 0
430 -20 18 0
-430 20 18 0
-430 -20 -18 0
-432 431 0
-432 16 0
-432 15 -18 0
-432 -15 18 0
432 -431 15 18 -16 0
432 -431 -15 -18 -16 0
434 431 -15 0
434 -431 15 0
-434 431 15 0
-434 -431 -15 0
433 18 -16 0
433 -18 16 0
-433 18 16 0
-433 -18 -16 0
-435 434 0
-435 14 0
-435 13 -16 0
-435 -13 16 0
435 -434 13 16 -14 0
435 -434 -13 -16 -14 0
437 434 -13 0
437 -434 13 0
-437 434 13 0
-437 -434 -13 0
436 16 -14 0
436 -16 14 0
-436 16 14 0
-436 -16 -14 0
-438 437 0
-438 12 0
-438 11 -14 0
-438 -11 14 0
438 -437 11 14 -12 0
438 -437 -11 -14 -12 0
440 437 -11 0
440 -437 11 0
-440 437 11 0
-440 -437 -11 0
439 14 -12 0
439 -14 12 0
-439 14 12 0
-439 -14 -12 0
-441 440 0
-441 10 0
-441 9 -12 0
-441 -9 12 0
441 -440 9 12 -10 0
441 -440 -9 -12 -10 0
443 440 -9 0
443 -440 9 0
-443 440 9 0
-443 -440 -9 0
442 12 -10 0
442 -12 10 0
-442 12 10 0
-442 -12 -10 0
-444 443 0
-444 8 0
-444 7 -10 0
-444 -7 10 0
444 -443 7 10 -8 0
444 -443 -7 -10 -8 0
446 443 -7 0
446 -443 7 0
-446 443 7 0
-446 -443 -7 0
445 10 -8 0
445 -10 8 0
-445 10 8 0
-445 -10 -8 0
-447 446 0
-447 6 0
-447 5 -8 0
-447 -5 8 0
447 -446 5 8 -6 0
447 -446 -5 -8 -6 0
449 446 -5 0
449 -446 5 0
-449 446 5 0
-449 -446 -5 0
448 8 -6 0
448 -8 6 0
-448 8 6 0
-448 -8 -6 0
-450 449 0
-450 4 0
-450 3 -6 0
-450 -3 6 0
450 -449 3 6 -4 0
450 -449 -3 -6 -4 0
452 449 -3 0
452 -449 3 0
-452 449 3 0
-452 -449 -3 0
451 6 -4 0
451 -6 4 0
-451 6 4 0
-451 -6 -4 0
-453 452 0
-453 2 0
-453 1 -4 0
-453 -1 4 0
453 -452 1 4 -2 0
453 -452 -1 -4 -2 0
455 452 -1 0
455 -452 1 0
-455 452 1 0
-455 -452 -1 0
454 4 -2 0
454 -4 2 0
-454 4 2 0
-454 -4 -2 0
-455 0
-452 0
-454 0
-449 0
-451 0
-446 0
-448 0
-443 0
-445 0
-440 0
-442 0
-437 0
-439 0
-434 0
-436 0
-431 0
-433 0
-428 0
-430 0
-425 0
-427 0
-422 0
-424 0
-419 0
-421 0
-416 0
-418 0
-413 0
-415 0
-410 0
-412 0
-407 0
-409 0
-404 0
-406 0
-401 0
-403 0
-398 0
-400 0
-395 0
-397 0
-392 0
-394 0
-389 0
-391 0
-386 0
-388 0
-383 0
-385 0
-380 0
-382 0
-377 0
-379 0
-374 0
-376 0
-371 0
-373 0
-368 0
-370 0
-365 0
-367 0
-362 0
-364 0
-359 0
-361 0
-356 0
-358 0
-353 0
-355 0
-350 0
-352 0
-347 0
-349 0
-344 0
-346 0
-341 0
-343 0
-338 0
-340 0
-335 0
-337 0
-332 0
-334 0
-329 0
-331 0
-326 0
-328 0
-323 0
-325 0
-320 0
-322 0
-317 0
-319 0
-314 0
-316 0
-311 0
-313 0
-308 0
-310 0
-305 0
-307 0
-302 0
-304 0
-299 0
-301 0
-296 0
-298 0
-293 0
-295 0
-290 0
-292 0
-287 0
-289 0
-284 0
-286 0
-281 0
-283 0
-278 0
-280 0
-275 0
-277 0
-272 0
-274 0
-269 0
-271 0
-266 0
-268 0
-263 0
-265 0
-260 0
-262 0
-257 0
-259 0
-254 0
-256 0
-251 0
-253 0
-248 0
-250 0
-245 0
-247 0
-242 0
-244 0
-239 0
-241 0
-236 0
-238 0
-233 0
-235 0
-230 0
-232 0
-227 0
-229 0
-224 0
-226 0
-221 0
-223 0
-218 0
-220 0
-215 0
-217 0
-212 0
-214 0
-209 0
-211 0
-206 0
-208 0
-203 0
-205 0
-200 0
-202 0
-197 0
-199 0
-194 0
-196 0
-191 0
-193 0
-184 0
-190 0
